c Pigeonhole problem with 6 pigeons, solutionExists = true
p cnf 25 55
-2 -17 0
-13 -23 0
-15 -20 0
-12 -22 0
-10 -25 0
-11 -21 0
-8 -13 0
-10 -15 0
4 5 1 2 3 0
-14 -24 0
-1 -21 0
-18 -23 0
8 9 10 6 7 0
-11 -16 0
19 16 17 20 18 0
-5 -10 0
-3 -23 0
-1 -6 0
-14 -19 0
-5 -20 0
-8 -23 0
-7 -22 0
-16 -21 0
-6 -16 0
-6 -11 0
-5 -25 0
-3 -18 0
-5 -15 0
-6 -21 0
-3 -13 0
-17 -22 0
-8 -18 0
-7 -12 0
-15 -25 0
-2 -22 0
-13 -18 0
-2 -7 0
-1 -16 0
-9 -19 0
-12 -17 0
-3 -8 0
-19 -24 0
23 22 24 21 25 0
-9 -14 0
-4 -9 0
-4 -24 0
-7 -17 0
-4 -19 0
-20 -25 0
-2 -12 0
-9 -24 0
-1 -11 0
-10 -20 0
12 13 14 15 11 0
-4 -14 0